CMD:
./solvers/bin/cadical --plain --no-reduce -t 1600 ./data/cnfs//beemandrsn4b1/beemandrsn4b1.57.cnf

c --- [ banner ] -------------------------------------------------------------
c 
c CaDiCaL SAT Solver
c Copyright (c) 2016-2024
c A. Biere, M. Fleury, N. Froleyks, K. Fazekas, F. Pollitt, T. Faller
c JKU Linz, University of Freiburg, TU Wien
c 
c Version 2.1.3 5296d3d2a9bf48c154ab2acb5e44625776d821bf
c g++ (Gentoo 12.3.1_p20230526 p2) 12.3.1 20230526 -Wall -Wextra -O3 -DNDEBUG
c Sat Aug 9 07:26:21 PDT 2025 Linux cedar2.int.cedar.computecanada.ca 5.14.0-362.24.2.el9_3.x86_64 x86_64
c 
c --- [ limit ] --------------------------------------------------------------
c 
c setting time limit to 1600 seconds real time (due to '-t 1600')
c 
c --- [ parsing input ] ------------------------------------------------------
c 
c reading DIMACS file from './data/cnfs//beemandrsn4b1/beemandrsn4b1.57.cnf'
c opening file to read './data/cnfs//beemandrsn4b1/beemandrsn4b1.57.cnf'
c found 'p cnf 114818 323908' header
c parsed 323908 clauses in 0.07 seconds process time
c 
c --- [ options ] ------------------------------------------------------------
c 
c   --compact=false                (different from default 'true')
c   --decompose=false              (different from default 'true')
c   --deduplicate=false            (different from default 'true')
c   --elim=false                   (different from default 'true')
c   --probe=false                  (different from default 'true')
c   --reduce=false                 (different from default 'true')
c   --subsume=false                (different from default 'true')
c   --ternary=false                (different from default 'true')
c   --transred=false               (different from default 'true')
c   --vivify=false                 (different from default 'true')
c 
c --- [ solving ] ------------------------------------------------------------
c 
c time measured in process time since initialization
c 
c  seconds  reductions  redundant  irredundant
c         MB    restarts       trail       variables
c          level   conflicts       glue         remaining
c 
c *  0.07 56  0 0   0    0    0  0% 0 323080 54025 47%
c {  0.08 56  0 0   0    0    0  0% 0 323080 54025 47%
c i  0.23 57 185 0  72  912  848 71% 4 323080 53939 47%
c i  0.23 57 184 0  72  913  848 70% 4 323080 53905 47%
c }  0.24 57 179 0  77 1002  936 70% 4 323080 53905 47%
c [  0.24 57  0 0  77 1002  936  0% 0 323080 53905 47%
c O  0.24 57 44 0  77 1003  937 54% 2 323080 53905 47%
c ]  0.39 57 100 0  78 3002 2684 62% 10 323080 53905 47%
c {  0.39 57 179 0  78 3002 2684 70% 4 323080 53905 47%
c F  0.40 57 179 0  78 3004 2686 70% 4 323080 53905 47%
c i  0.41 57 148 0 101 3268 2929 67% 4 323080 53896 47%
c i  0.45 58 123 0 137 3783 3388 64% 4 323080 53875 47%
c i  0.51 58 116 0 185 4527 4073 64% 4 323080 53870 47%
c i  0.52 58 112 0 200 4803 4314 63% 4 323080 53865 47%
c i  0.54 58 107 0 231 5015 4507 63% 4 323080 53847 47%
c i  0.54 58 104 0 238 5165 4639 62% 4 323080 53835 47%
c i  0.63 58 103 0 342 5903 5317 62% 4 323080 53820 47%
c #  0.64 58 101 0 363 6006 5405 62% 4 323080 53820 47%
c i  0.64 58 99 0 369 6105 5497 62% 4 323080 53805 47%
c i  0.66 58 97 0 403 6404 5761 62% 4 323080 53781 47%
c 
c  seconds  reductions  redundant  irredundant
c         MB    restarts       trail       variables
c          level   conflicts       glue         remaining
c 
c i  0.66 58 97 0 404 6410 5766 62% 4 323080 53761 47%
c i  0.66 58 97 0 404 6411 5766 62% 4 323080 53757 47%
c i  0.66 58 97 0 404 6412 5766 62% 4 323080 53748 47%
c i  0.66 58 97 0 404 6413 5766 62% 4 323080 53745 47%
c i  0.66 58 97 0 404 6414 5766 62% 4 323080 53737 47%
c }  0.70 58 96 0 460 7004 6303 62% 4 323080 53737 47%
c [  0.70 58 100 0 460 7004 6303 62% 10 323080 53737 47%
c I  0.92 59 131 0 462 10007 9176 65% 10 323080 53737 47%
c ]  1.38 60 204 0 465 15004 13795 71% 10 323080 53737 47%
c {  1.38 60 96 0 465 15004 13795 62% 4 323080 53737 47%
c B  1.39 60 96 0 466 15012 13802 62% 4 323080 53737 47%
c i  1.62 61 98 0 615 15996 14688 62% 4 323080 53735 47%
c i  1.85 61 95 0 857 17579 16132 61% 5 323080 53733 47%
c i  1.85 61 95 0 859 17608 16159 61% 5 323080 53729 47%
c i  1.85 61 95 0 859 17609 16159 61% 5 323080 53725 47%
c i  1.94 61 92 0 1009 18528 17018 61% 5 323080 53692 47%
c i  1.94 61 92 0 1009 18541 17028 61% 5 323080 53688 47%
c i  2.06 62 90 0 1162 19528 17930 61% 5 323080 53673 47%
c i  2.20 62 91 0 1268 20746 19058 61% 5 323080 53625 47%
c i  2.20 62 91 0 1268 20751 19062 61% 5 323080 53594 47%
c 
c  seconds  reductions     redundant  irredundant
c         MB    restarts          trail       variables
c          level     conflicts        glue         remaining
c 
c W  2.37 63 90 0 1303 21015 19163 61% 5 155519 53593 47%
c i  2.46 63 87 0 1411 22060 20129 61% 5 155519 53559 47%
c i  2.47 63 86 0 1414 22225 20272 61% 5 155519 53558 47%
c F  3.15 63 92 0 1939 28016 25599 61% 5 155519 53558 47%
... skipped 268 lines ...
c           MB     restarts              trail       variables
c            level       conflicts           glue         remaining
c 
c i 795.43 535 82 0 77703 1416474 1316016 65% 9 148629 51104 45%
c i 796.57 536 82 0 77791 1417177 1316646 65% 9 148629 51092 44%
c W 815.58 561 82 0 78908 1431103 1319476 65% 9 147774 51092 44%
c i 839.61 565 81 0 80411 1447098 1334588 65% 9 147774 51086 44%
c i 851.62 565 80 0 81186 1455521 1342543 65% 9 147774 51051 44%
c i 858.39 565 80 0 81672 1458885 1345722 65% 9 147774 51032 44%
c F 903.49 566 79 0 84643 1485104 1370396 65% 9 147774 51032 44%
c i 921.14 566 77 0 85662 1498654 1382869 65% 9 147774 51027 44%
c i 968.03 567 75 0 88635 1532967 1415080 65% 9 147774 51019 44%
c B 983.30 567 76 0 89698 1540106 1421797 65% 9 147774 51019 44%
c W 1069.79 611 76 0 94952 1596107 1473455 65% 9 147554 51019 44%
c i 1134.45 614 79 0 98825 1629912 1505335 65% 10 147554 51013 44%
c i 1162.87 614 80 0 100471 1648396 1522765 65% 10 147554 50993 44%
c # 1168.65 615 79 0 100707 1653110 1527219 65% 9 147554 50993 44%
c i 1177.45 615 80 0 101219 1657660 1531503 65% 10 147554 50985 44%
c i 1182.64 615 81 0 101511 1660223 1533916 65% 10 147554 50984 44%
c i 1191.35 615 80 0 101968 1664315 1537801 65% 10 147554 50973 44%
c i 1201.40 615 82 0 102370 1671928 1544948 66% 9 147554 50968 44%
c i 1229.50 615 83 0 104022 1687115 1559308 66% 10 147554 50944 44%
c B 1268.61 619 81 0 106160 1711113 1581787 66% 10 147554 50944 44%
c 
c   seconds    reductions          redundant    irredundant
c            MB     restarts               trail        variables
c             level        conflicts           glue          remaining
c 
c i 1269.68 620 82 0 106208 1712628 1583234 66% 10 147554 50908 44%
c i 1278.43 622 82 0 106773 1716890 1587224 66% 10 147554 50903 44%
c i 1285.59 623 81 0 107200 1721087 1591201 66% 10 147554 50898 44%
c i 1286.70 624 81 0 107269 1722152 1592205 66% 10 147554 50886 44%
c i 1353.51 640 85 0 111057 1760837 1628703 66% 10 147554 50885 44%
c i 1361.29 642 84 0 111386 1765888 1633427 66% 10 147554 50871 44%
c W 1366.93 669 84 0 111690 1770114 1630159 66% 10 147093 50871 44%
c i 1386.84 669 84 0 112722 1780871 1640340 66% 10 147093 50866 44%
c i 1395.49 669 85 0 113190 1786730 1645868 66% 10 147093 50860 44%
c i 1395.54 669 85 0 113191 1786778 1645913 66% 10 147093 50859 44%
c i 1410.30 669 83 0 113857 1794839 1653505 66% 10 147093 50849 44%
c i 1422.56 669 83 0 114519 1801672 1659954 66% 10 147093 50845 44%
c i 1461.70 669 83 0 116536 1820893 1678087 66% 10 147093 50837 44%
c i 1461.70 669 83 0 116537 1820895 1678088 66% 10 147093 50818 44%
c F 1473.95 669 83 0 117144 1830117 1686832 66% 10 147093 50817 44%
c i 1583.36 674 85 0 122719 1883378 1737129 66% 10 147093 50814 44%
c } 1586.80 674 85 0 122853 1885054 1738714 66% 10 147093 50814 44%
c ? 1586.80 674 85 0 122853 1885054 1738714 66% 10 147093 50814 44%
c 
c --- [ result ] -------------------------------------------------------------
c 
c UNKNOWN
c 
c --- [ run-time profiling ] -------------------------------------------------
c 
c process time taken by individual solving procedures
c (percentage relative to process time for solving)
c 
c      1586.73  100.00% search
c      1433.05   90.31% unstable
c       148.23    9.34% stable
c         5.43    0.34% walk
c         0.07    0.00% parse
c         0.01    0.00% lucky
c         0.00    0.00% simplify
c   =================================
c      1586.73  100.00% solve
c 
c last line shows process time for solving
c (percentage relative to total process time)
c 
c --- [ statistics ] ---------------------------------------------------------
c 
c chronological:            445067        23.61 %  of conflicts
c conflicts:               1885054      1188.01    per second
c decisions:              13052145      8225.83    per second
c fixed:                     64004        55.74 %  of all variables
c learned:                 1837211        97.46 %  per conflict
c learned_lits:          118877660       100.00 %  learned literals
c minimized:                     0         0.00 %  learned literals
c shrunken:               11318514         9.52 %  learned literals
c minishrunken:           32067799        26.98 %  learned literals
c otfs:                       5337         0.28 %  of conflict
c propagations:         2418019210         1.52 M  per second
c rephased:                     60     31417.57    interval
c restarts:                 122853        15.34    interval
c stabilizing:                   5        36.18 %  of conflicts
c subsumed:                  63398         2.93 %  of all clauses
c strengthened:               5268         0.24 %  of all clauses
c walked:                       19     99213.37    interval
c 
c seconds are measured in process time for solving
c 
c --- [ resources ] ----------------------------------------------------------
c 
c total process time since initialization:      1586.80    seconds
c total real time since initialization:         1600.00    seconds
c maximum resident set size of process:          946.84    MB
c 
c --- [ shutting down ] ------------------------------------------------------
c 
c exit 0
